words_hard_train/7664.qaiger
aag 106 16 0 1 90
2
4
14
34
38
48
60
80
90
110
122
140
150
170
180
190
213
6 3 5
8 2 4
10 7 9
12 10 2
16 9 15
18 8 14
20 17 19
22 20 11
24 16 7
26 23 25
28 13 26
30 12 27
32 29 31
36 34 3
40 39 5
42 36 41
44 38 4
46 43 45
50 47 48
52 33 51
54 46 49
56 53 55
58 21 25
62 19 61
64 18 60
66 63 65
68 59 66
70 58 67
72 69 71
74 73 31
76 72 30
78 75 77
82 79 81
84 56 83
86 78 80
88 85 87
92 65 91
94 64 90
96 93 95
98 96 71
100 97 70
102 99 101
104 103 77
106 102 76
108 105 107
112 108 110
114 88 113
116 109 111
118 115 117
120 107 101
124 95 123
126 94 122
128 125 127
130 120 128
132 106 129
134 131 133
136 100 129
138 134 137
142 138 140
144 119 143
146 139 141
148 145 147
152 127 151
154 126 150
156 153 155
158 136 156
160 137 157
162 159 161
164 162 133
166 163 132
168 165 167
172 168 170
174 149 173
176 169 171
178 175 177
182 178 181
184 137 154
186 136 152
188 185 187
192 189 190
194 188 191
196 193 195
198 196 166
200 182 199
202 197 167
204 203 183
206 201 205
208 179 180
210 208 199
212 207 211
i0 1 x1[0]
i1 1 x1[1]
i2 1 x1[2]
i3 2 y1[0]
i4 2 y1[1]
i5 2 y1[2]
i6 1 x1[3]
i7 2 y1[3]
i8 1 x1[4]
i9 2 y1[4]
i10 1 x1[5]
i11 2 y1[5]
i12 1 x1[6]
i13 2 y1[6]
i14 2 y1[7]
i15 1 x1[7]
o0 bv[0]
c
simplified
  <
    2 y1
    add
      invert
        1
      add
        1
        1 x1
