words_hard_train/7664.qaiger.qdimacs
p cnf 106 271
a 1 2 7 75 45 61 30 95 0
e 3 4 5 6 8 9 10 11 12 13 14 15 16 17 18 19 20 21 22 23 24 25 26 27 28 29 31 32 33 34 35 36 37 38 39 40 41 42 43 44 46 47 48 49 50 51 52 53 54 55 56 57 58 59 60 62 63 64 65 66 67 68 69 70 71 72 73 74 76 77 78 79 80 81 82 83 84 85 86 87 88 89 90 91 92 93 94 96 97 98 99 100 101 102 103 104 105 106 0
1 2 3 0
-1 -3 0
-2 -3 0
-1 -2 4 0
1 -4 0
2 -4 0
3 4 5 0
-3 -5 0
-4 -5 0
-5 -1 6 0
5 -6 0
1 -6 0
4 7 8 0
-4 -8 0
-7 -8 0
-4 -7 9 0
4 -9 0
7 -9 0
8 9 10 0
-8 -10 0
-9 -10 0
-10 5 11 0
10 -11 0
-5 -11 0
-8 3 12 0
8 -12 0
-3 -12 0
11 12 13 0
-11 -13 0
-12 -13 0
6 -13 14 0
-6 -14 0
13 -14 0
-6 13 15 0
6 -15 0
-13 -15 0
14 15 16 0
-14 -16 0
-15 -16 0
-17 1 18 0
17 -18 0
-1 -18 0
19 2 20 0
-19 -20 0
-2 -20 0
-18 20 21 0
18 -21 0
-20 -21 0
-19 -2 22 0
19 -22 0
2 -22 0
21 22 23 0
-21 -23 0
-22 -23 0
23 -24 25 0
-23 -25 0
24 -25 0
16 25 26 0
-16 -26 0
-25 -26 0
-23 24 27 0
23 -27 0
-24 -27 0
26 27 28 0
-26 -28 0
-27 -28 0
10 12 29 0
-10 -29 0
-12 -29 0
9 30 31 0
-9 -31 0
-30 -31 0
-9 -30 32 0
9 -32 0
30 -32 0
31 32 33 0
-31 -33 0
-32 -33 0
29 -33 34 0
-29 -34 0
33 -34 0
-29 33 35 0
29 -35 0
-33 -35 0
34 35 36 0
-34 -36 0
-35 -36 0
36 15 37 0
-36 -37 0
-15 -37 0
-36 -15 38 0
36 -38 0
15 -38 0
37 38 39 0
-37 -39 0
-38 -39 0
39 40 41 0
-39 -41 0
-40 -41 0
-28 41 42 0
28 -42 0
-41 -42 0
-39 -40 43 0
39 -43 0
40 -43 0
42 43 44 0
-42 -44 0
-43 -44 0
32 45 46 0
-32 -46 0
-45 -46 0
-32 -45 47 0
32 -47 0
45 -47 0
46 47 48 0
-46 -48 0
-47 -48 0
-48 35 49 0
48 -49 0
-35 -49 0
48 -35 50 0
-48 -50 0
35 -50 0
49 50 51 0
-49 -51 0
-50 -51 0
51 38 52 0
-51 -52 0
-38 -52 0
-51 -38 53 0
51 -53 0
38 -53 0
52 53 54 0
-52 -54 0
-53 -54 0
-54 -55 56 0
54 -56 0
55 -56 0
-44 56 57 0
44 -57 0
-56 -57 0
54 55 58 0
-54 -58 0
-55 -58 0
57 58 59 0
-57 -59 0
-58 -59 0
53 50 60 0
-53 -60 0
-50 -60 0
47 61 62 0
-47 -62 0
-61 -62 0
-47 -61 63 0
47 -63 0
61 -63 0
62 63 64 0
-62 -64 0
-63 -64 0
-60 -64 65 0
60 -65 0
64 -65 0
-53 64 66 0
53 -66 0
-64 -66 0
65 66 67 0
-65 -67 0
-66 -67 0
-50 64 68 0
50 -68 0
-64 -68 0
-67 68 69 0
67 -69 0
-68 -69 0
-69 -70 71 0
69 -71 0
70 -71 0
59 71 72 0
-59 -72 0
-71 -72 0
69 70 73 0
-69 -73 0
-70 -73 0
72 73 74 0
-72 -74 0
-73 -74 0
63 75 76 0
-63 -76 0
-75 -76 0
-63 -75 77 0
63 -77 0
75 -77 0
76 77 78 0
-76 -78 0
-77 -78 0
-68 -78 79 0
68 -79 0
78 -79 0
68 78 80 0
-68 -80 0
-78 -80 0
79 80 81 0
-79 -81 0
-80 -81 0
-81 66 82 0
81 -82 0
-66 -82 0
81 -66 83 0
-81 -83 0
66 -83 0
82 83 84 0
-82 -84 0
-83 -84 0
-84 -85 86 0
84 -86 0
85 -86 0
74 86 87 0
-74 -87 0
-86 -87 0
84 85 88 0
-84 -88 0
-85 -88 0
87 88 89 0
-87 -89 0
-88 -89 0
-89 90 91 0
89 -91 0
-90 -91 0
68 -77 92 0
-68 -92 0
77 -92 0
-68 -76 93 0
68 -93 0
76 -93 0
92 93 94 0
-92 -94 0
-93 -94 0
94 -95 96 0
-94 -96 0
95 -96 0
-94 95 97 0
94 -97 0
-95 -97 0
96 97 98 0
-96 -98 0
-97 -98 0
-98 -83 99 0
98 -99 0
83 -99 0
-91 99 100 0
91 -100 0
-99 -100 0
98 83 101 0
-98 -101 0
-83 -101 0
101 91 102 0
-101 -102 0
-91 -102 0
100 102 103 0
-100 -103 0
-102 -103 0
89 -90 104 0
-89 -104 0
90 -104 0
-104 99 105 0
104 -105 0
-99 -105 0
103 105 106 0
-103 -106 0
-105 -106 0
-106 0
